
Gurobi 11.0.1 (mac64[arm]) logging started Fri May  3 23:51:21 2024

Set parameter LogFile to value "../models/model_moo(May 03,2351).log"
Gurobi Optimizer version 11.0.1 build v11.0.1rc0 (mac64[arm] - Darwin 23.2.0 23C71)

CPU model: Apple M2
Thread count: 8 physical cores, 8 logical processors, using up to 8 threads

Optimize a model with 1797 rows, 1408 columns and 4423 nonzeros
Model fingerprint: 0xe21637bb
Variable types: 1041 continuous, 367 integer (367 binary)
Coefficient statistics:
  Matrix range     [1e+00, 2e+25]
  Objective range  [3e-04, 3e+04]
  Bounds range     [1e+00, 1e+00]
  RHS range        [1e+00, 1e+12]
Warning: Model contains large matrix coefficient range
Warning: Model contains large rhs
         Consider reformulating model or setting NumericFocus parameter
         to avoid numerical issues.

---------------------------------------------------------------------------
Multi-objectives: starting optimization with 2 objectives ... 
---------------------------------------------------------------------------

Multi-objectives: applying initial presolve ...
---------------------------------------------------------------------------

Presolve removed 1312 rows and 694 columns
Presolve time: 0.00s
Presolved: 485 rows, 714 columns, 1447 nonzeros
---------------------------------------------------------------------------

Multi-objectives: optimize objective 1 (objective_re_1) ...
---------------------------------------------------------------------------

Found heuristic solution: objective 0.0000000
Presolve removed 81 rows and 368 columns
Presolve time: 0.00s
Presolved: 404 rows, 346 columns, 998 nonzeros
Variable types: 0 continuous, 346 integer (346 binary)
Found heuristic solution: objective -658339.9138

Root relaxation: objective -1.094707e+06, 291 iterations, 0.00 seconds (0.00 work units)

    Nodes    |    Current Node    |     Objective Bounds      |     Work
 Expl Unexpl |  Obj  Depth IntInf | Incumbent    BestBd   Gap | It/Node Time

     0     0 -1094706.6    0   72 -658339.91 -1094706.6  66.3%     -    0s
H    0     0                    -1023746.559 -1094706.6  6.93%     -    0s
H    0     0                    -1062635.304 -1094706.6  3.02%     -    0s
H    0     0                    -1085362.834 -1094706.6  0.86%     -    0s
H    0     0                    -1085362.915 -1094706.6  0.86%     -    0s

Cutting planes:
  Gomory: 1
  Zero half: 1

Explored 1 nodes (291 simplex iterations) in 0.02 seconds (0.01 work units)
Thread count was 8 (of 8 available processors)

Solution count 5: -1.08536e+06 -1.08536e+06 -1.06264e+06 ... -658340
No other solutions better than -1.08536e+06

Optimal solution found (tolerance 1.00e-04)
Best objective -1.085362914651e+06, best bound -1.085362914651e+06, gap -0.0000%
---------------------------------------------------------------------------

Multi-objectives: optimize objective 2 (objective_cost_2) ...
---------------------------------------------------------------------------


Loaded user MIP start with objective 0.0525

Presolve removed 84 rows and 371 columns
Presolve time: 0.00s
Presolved: 402 rows, 343 columns, 1316 nonzeros
Found heuristic solution: objective -33092.66761
Variable types: 0 continuous, 343 integer (343 binary)
Warning: Markowitz tolerance tightened to 0.03125

Root relaxation: objective -5.614792e+04, 565 iterations, 0.00 seconds (0.01 work units)

    Nodes    |    Current Node    |     Objective Bounds      |     Work
 Expl Unexpl |  Obj  Depth IntInf | Incumbent    BestBd   Gap | It/Node Time

     0     0 -56147.920    0  117 -33092.668 -56147.920  69.7%     -    0s
H    0     0                    -50437.67014 -56147.920  11.3%     -    0s

Cutting planes:
  Zero half: 2

Explored 1 nodes (565 simplex iterations) in 0.05 seconds (0.03 work units)
Thread count was 8 (of 8 available processors)

Solution count 2: -50437.7 -33092.7 
No other solutions better than -50437.7

Optimal solution found (tolerance 1.00e-04)
Best objective -5.043767013694e+04, best bound -5.043767013694e+04, gap 0.0000%

---------------------------------------------------------------------------
Multi-objectives: solved in 0.05 seconds (0.03 work units), solution count 7

